Reading MSA file...
Removing fixed positions...

Library size limit:		320000000
Sublibrary count limit:		1
Number of targets:		200
Number of variable positions:	9

Using exact library size.

Academic license - for non-commercial use only
Parameter OutputFlag unchanged
   Value: 1  Min: 0  Max: 1  Default: 1
Changed value of parameter QCPDual to 1
   Prev: 0  Min: 0  Max: 1  Default: 0
Changed value of parameter TimeLimit to 172800.0
   Prev: 1e+100  Min: 0.0  Max: 1e+100  Default: 1e+100
Changed value of parameter Threads to 12
   Prev: 0  Min: 0  Max: 1024  Default: 0
Optimize a model with 810 rows, 7969 columns and 1045370 nonzeros
Variable types: 0 continuous, 7969 integer (7969 binary)
Coefficient statistics:
  Matrix range     [7e-01, 9e+00]
  Objective range  [1e+00, 1e+00]
  Bounds range     [1e+00, 1e+00]
  RHS range        [1e+00, 2e+01]
Found heuristic solution: objective 0.0000000
Presolve removed 600 rows and 6467 columns
Presolve time: 1.45s
Presolved: 210 rows, 1502 columns, 99911 nonzeros
Variable types: 0 continuous, 1502 integer (1502 binary)

Root relaxation: objective -1.951006e+02, 288 iterations, 0.02 seconds

    Nodes    |    Current Node    |     Objective Bounds      |     Work
 Expl Unexpl |  Obj  Depth IntInf | Incumbent    BestBd   Gap | It/Node Time

     0     0 -195.10057    0   45    0.00000 -195.10057      -     -    1s
H    0     0                    -157.0000000 -195.10057  24.3%     -    1s
     0     0 -185.95083    0   66 -157.00000 -185.95083  18.4%     -    1s
     0     0 -184.19559    0   87 -157.00000 -184.19559  17.3%     -    1s
     0     0 -183.07258    0  117 -157.00000 -183.07258  16.6%     -    1s
     0     0 -183.07091    0  126 -157.00000 -183.07091  16.6%     -    1s
     0     0 -181.07389    0  205 -157.00000 -181.07389  15.3%     -    2s
     0     0 -180.37588    0  219 -157.00000 -180.37588  14.9%     -    2s
     0     0 -180.33733    0  218 -157.00000 -180.33733  14.9%     -    2s
     0     0 -180.22547    0  217 -157.00000 -180.22547  14.8%     -    2s
     0     0 -180.18788    0  146 -157.00000 -180.18788  14.8%     -    2s
     0     0 -180.18369    0  148 -157.00000 -180.18369  14.8%     -    2s
     0     0 -180.18005    0  220 -157.00000 -180.18005  14.8%     -    2s
     0     0 -179.51368    0  171 -157.00000 -179.51368  14.3%     -    2s
     0     0 -178.56704    0  220 -157.00000 -178.56704  13.7%     -    2s
     0     0 -178.01870    0  218 -157.00000 -178.01870  13.4%     -    2s
     0     0 -177.83994    0  217 -157.00000 -177.83994  13.3%     -    2s
     0     0 -177.68692    0  215 -157.00000 -177.68692  13.2%     -    2s
     0     0 -177.41557    0  213 -157.00000 -177.41557  13.0%     -    2s
     0     0 -177.32226    0  221 -157.00000 -177.32226  12.9%     -    2s
     0     0 -177.15573    0  222 -157.00000 -177.15573  12.8%     -    2s
     0     0 -177.11662    0  227 -157.00000 -177.11662  12.8%     -    2s
     0     0 -177.11444    0  226 -157.00000 -177.11444  12.8%     -    2s
     0     0 -176.05216    0  224 -157.00000 -176.05216  12.1%     -    2s
     0     0 -175.25976    0  229 -157.00000 -175.25976  11.6%     -    2s
     0     0 -174.68387    0  234 -157.00000 -174.68387  11.3%     -    3s
     0     0 -174.42609    0  241 -157.00000 -174.42609  11.1%     -    3s
     0     0 -174.34770    0  236 -157.00000 -174.34770  11.0%     -    3s
     0     0 -174.29729    0  237 -157.00000 -174.29729  11.0%     -    3s
     0     0 -174.28133    0  235 -157.00000 -174.28133  11.0%     -    3s
     0     0 -174.27888    0  237 -157.00000 -174.27888  11.0%     -    3s
     0     0 -174.16196    0  238 -157.00000 -174.16196  10.9%     -    3s
     0     0 -174.00950    0  240 -157.00000 -174.00950  10.8%     -    3s
     0     0 -173.90661    0  247 -157.00000 -173.90661  10.8%     -    3s
     0     0 -173.84554    0  246 -157.00000 -173.84554  10.7%     -    3s
     0     0 -173.82793    0  247 -157.00000 -173.82793  10.7%     -    3s
     0     0 -173.82029    0  248 -157.00000 -173.82029  10.7%     -    3s
     0     0 -173.64263    0  248 -157.00000 -173.64263  10.6%     -    3s
     0     0 -173.55837    0  248 -157.00000 -173.55837  10.5%     -    3s
     0     0 -173.47240    0  250 -157.00000 -173.47240  10.5%     -    3s
     0     0 -173.43965    0  252 -157.00000 -173.43965  10.5%     -    3s
     0     0 -173.43047    0  255 -157.00000 -173.43047  10.5%     -    4s
     0     0 -173.32857    0  253 -157.00000 -173.32857  10.4%     -    4s
     0     0 -173.31354    0  253 -157.00000 -173.31354  10.4%     -    5s
     0     0 -172.92432    0  245 -157.00000 -172.92432  10.1%     -    5s
     0     0 -172.83967    0  257 -157.00000 -172.83967  10.1%     -    5s
     0     0 -172.83069    0  256 -157.00000 -172.83069  10.1%     -    5s
     0     0 -172.82958    0  255 -157.00000 -172.82958  10.1%     -    5s
     0     2 -172.82958    0  255 -157.00000 -172.82958  10.1%     -    5s

Cutting planes:
  Gomory: 11
  Cover: 7
  MIR: 10
  GUB cover: 370
  Inf proof: 4

Explored 5264 nodes (215249 simplex iterations) in 9.29 seconds
Thread count was 12 (of 40 available processors)

Solution count 2: -157 0 

Optimal solution found (tolerance 1.00e-04)
Best objective -1.570000000000e+02, best bound -1.570000000000e+02, gap 0.0000%

Number of covered targets:	157
Total library size:		63700992
Probability on target:		0.00000

Writing output...
